gil262_1
0 175 236 94 247 253 23 69 143 226 237 50 114 255 64 174 71 44 213 257 52 36 187 59 125 115 78 5 249 169 137 182 232 77 162 48 229 14 126 160 38 165 260 133 201 70 195 2 242 21 76 135 130 15 116 37 258 168 251 204 196 106 98 161 10 156 103 62 100 89 105 58 199 192 75 35 208 60 186 129 104 190 239 32 121 170 72 122 4 110 252 119 224 57 191 228 212 56 49 234 97 144 109 79 148 27 5 22 54 209 206 92 180 67 29 238 87 193 183 181 18 202 124 108 210 85 42 203 31 197 12 30 149 61 141 233 80 154 214 166 112 198 157 256 120 167 82 111 3 150 33 221 127 93 16 107 46 40 172 152 153 227 20 158 261 74 55 235 51 5 68 254 188 231 28 96 147 81 189 0